Version, 25.2;
SimulationControl, No, No, No, No, Yes;
Building, 신규 프로젝트, 0, Suburbs, 0.04, 0.4, FullExterior, 25, 6;
SurfaceConvectionAlgorithm:Inside, TARP;
SurfaceConvectionAlgorithm:Outside, DOE-2;
HeatBalanceAlgorithm, ConductionTransferFunction;
Timestep, 4;
GlobalGeometryRules, UpperLeftCorner, CounterClockwise, World;
RunPeriod, AnnualRun, 1, 1, 2024, 12, 31, 2024, Sunday, Yes, Yes, No, Yes, Yes;
Material, Concrete_Heavy, MediumRough, 0.2, 1.95, 2240, 900, 0.9, 0.7, 0.7;
Material, Insul_S-1, Smooth, 0.0459, 0.04, 50, 800, 0.9, 0.7, 0.7;
Construction, Const_S-1, Concrete_Heavy, Insul_S-1, Concrete_Heavy;
WindowMaterial:SimpleGlazingSystem, Glass_S-1, 2.74, 0.60, 0.8;
Construction, WinConst_S-1, Glass_S-1;
Material, Insul_S-2, Smooth, 0.0459, 0.04, 50, 800, 0.9, 0.7, 0.7;
Construction, Const_S-2, Concrete_Heavy, Insul_S-2, Concrete_Heavy;
WindowMaterial:SimpleGlazingSystem, Glass_S-2, 2.74, 0.60, 0.8;
Construction, WinConst_S-2, Glass_S-2;
Material, Insul_S-3, Smooth, 0.0959, 0.04, 50, 800, 0.9, 0.7, 0.7;
Construction, Const_S-3, Concrete_Heavy, Insul_S-3, Concrete_Heavy;
Material, Insul_S-4, Smooth, 0.0459, 0.04, 50, 800, 0.9, 0.7, 0.7;
Construction, Const_S-4, Concrete_Heavy, Insul_S-4, Concrete_Heavy;
WindowMaterial:SimpleGlazingSystem, Glass_S-4, 2.74, 0.60, 0.8;
Construction, WinConst_S-4, Glass_S-4;
Material, Insul_S-5, Smooth, 0.0459, 0.04, 50, 800, 0.9, 0.7, 0.7;
Construction, Const_S-5, Concrete_Heavy, Insul_S-5, Concrete_Heavy;
WindowMaterial:SimpleGlazingSystem, Glass_S-5, 2.74, 0.60, 0.8;
Construction, WinConst_S-5, Glass_S-5;
Material, Insul_S-6, Smooth, 0.0959, 0.04, 50, 800, 0.9, 0.7, 0.7;
Construction, Const_S-6, Concrete_Heavy, Insul_S-6, Concrete_Heavy;
Material, Insul_S-7, Smooth, 0.0459, 0.04, 50, 800, 0.9, 0.7, 0.7;
Construction, Const_S-7, Concrete_Heavy, Insul_S-7, Concrete_Heavy;
WindowMaterial:SimpleGlazingSystem, Glass_S-7, 2.74, 0.60, 0.8;
Construction, WinConst_S-7, Glass_S-7;
Material, Insul_S-8, Smooth, 0.0459, 0.04, 50, 800, 0.9, 0.7, 0.7;
Construction, Const_S-8, Concrete_Heavy, Insul_S-8, Concrete_Heavy;
WindowMaterial:SimpleGlazingSystem, Glass_S-8, 2.74, 0.60, 0.8;
Construction, WinConst_S-8, Glass_S-8;
Material, Insul_S-9, Smooth, 0.0959, 0.04, 50, 800, 0.9, 0.7, 0.7;
Construction, Const_S-9, Concrete_Heavy, Insul_S-9, Concrete_Heavy;
Material, Insul_S-10, Smooth, 0.0459, 0.04, 50, 800, 0.9, 0.7, 0.7;
Construction, Const_S-10, Concrete_Heavy, Insul_S-10, Concrete_Heavy;
WindowMaterial:SimpleGlazingSystem, Glass_S-10, 2.74, 0.60, 0.8;
Construction, WinConst_S-10, Glass_S-10;
Material, Insul_S-11, Smooth, 0.0459, 0.04, 50, 800, 0.9, 0.7, 0.7;
Construction, Const_S-11, Concrete_Heavy, Insul_S-11, Concrete_Heavy;
WindowMaterial:SimpleGlazingSystem, Glass_S-11, 2.74, 0.60, 0.8;
Construction, WinConst_S-11, Glass_S-11;
Material, Insul_S-12, Smooth, 0.0959, 0.04, 50, 800, 0.9, 0.7, 0.7;
Construction, Const_S-12, Concrete_Heavy, Insul_S-12, Concrete_Heavy;
Material, Insul_S-13, Smooth, 0.0459, 0.04, 50, 800, 0.9, 0.7, 0.7;
Construction, Const_S-13, Concrete_Heavy, Insul_S-13, Concrete_Heavy;
WindowMaterial:SimpleGlazingSystem, Glass_S-13, 2.74, 0.60, 0.8;
Construction, WinConst_S-13, Glass_S-13;
Material, Insul_S-14, Smooth, 0.0459, 0.04, 50, 800, 0.9, 0.7, 0.7;
Construction, Const_S-14, Concrete_Heavy, Insul_S-14, Concrete_Heavy;
WindowMaterial:SimpleGlazingSystem, Glass_S-14, 2.74, 0.60, 0.8;
Construction, WinConst_S-14, Glass_S-14;
Material, Insul_S-15, Smooth, 0.0959, 0.04, 50, 800, 0.9, 0.7, 0.7;
Construction, Const_S-15, Concrete_Heavy, Insul_S-15, Concrete_Heavy;
Material, Insul_S-16, Smooth, 0.0459, 0.04, 50, 800, 0.9, 0.7, 0.7;
Construction, Const_S-16, Concrete_Heavy, Insul_S-16, Concrete_Heavy;
WindowMaterial:SimpleGlazingSystem, Glass_S-16, 2.74, 0.60, 0.8;
Construction, WinConst_S-16, Glass_S-16;
Material, Insul_S-17, Smooth, 0.0459, 0.04, 50, 800, 0.9, 0.7, 0.7;
Construction, Const_S-17, Concrete_Heavy, Insul_S-17, Concrete_Heavy;
WindowMaterial:SimpleGlazingSystem, Glass_S-17, 2.74, 0.60, 0.8;
Construction, WinConst_S-17, Glass_S-17;
Material, Insul_S-18, Smooth, 0.0959, 0.04, 50, 800, 0.9, 0.7, 0.7;
Construction, Const_S-18, Concrete_Heavy, Insul_S-18, Concrete_Heavy;
Material, Insul_S-19, Smooth, 0.0459, 0.04, 50, 800, 0.9, 0.7, 0.7;
Construction, Const_S-19, Concrete_Heavy, Insul_S-19, Concrete_Heavy;
WindowMaterial:SimpleGlazingSystem, Glass_S-19, 2.74, 0.60, 0.8;
Construction, WinConst_S-19, Glass_S-19;
Material, Insul_S-20, Smooth, 0.0459, 0.04, 50, 800, 0.9, 0.7, 0.7;
Construction, Const_S-20, Concrete_Heavy, Insul_S-20, Concrete_Heavy;
WindowMaterial:SimpleGlazingSystem, Glass_S-20, 2.74, 0.60, 0.8;
Construction, WinConst_S-20, Glass_S-20;
Material, Insul_S-21, Smooth, 0.0959, 0.04, 50, 800, 0.9, 0.7, 0.7;
Construction, Const_S-21, Concrete_Heavy, Insul_S-21, Concrete_Heavy;
Material, Insul_S-22, Smooth, 0.0459, 0.04, 50, 800, 0.9, 0.7, 0.7;
Construction, Const_S-22, Concrete_Heavy, Insul_S-22, Concrete_Heavy;
WindowMaterial:SimpleGlazingSystem, Glass_S-22, 2.74, 0.60, 0.8;
Construction, WinConst_S-22, Glass_S-22;
Material, Insul_S-23, Smooth, 0.0459, 0.04, 50, 800, 0.9, 0.7, 0.7;
Construction, Const_S-23, Concrete_Heavy, Insul_S-23, Concrete_Heavy;
WindowMaterial:SimpleGlazingSystem, Glass_S-23, 2.74, 0.60, 0.8;
Construction, WinConst_S-23, Glass_S-23;
Material, Insul_S-24, Smooth, 0.0959, 0.04, 50, 800, 0.9, 0.7, 0.7;
Construction, Const_S-24, Concrete_Heavy, Insul_S-24, Concrete_Heavy;
Material, Insul_S-25, Smooth, 0.0459, 0.04, 50, 800, 0.9, 0.7, 0.7;
Construction, Const_S-25, Concrete_Heavy, Insul_S-25, Concrete_Heavy;
WindowMaterial:SimpleGlazingSystem, Glass_S-25, 2.74, 0.60, 0.8;
Construction, WinConst_S-25, Glass_S-25;
Material, Insul_S-26, Smooth, 0.0459, 0.04, 50, 800, 0.9, 0.7, 0.7;
Construction, Const_S-26, Concrete_Heavy, Insul_S-26, Concrete_Heavy;
WindowMaterial:SimpleGlazingSystem, Glass_S-26, 2.74, 0.60, 0.8;
Construction, WinConst_S-26, Glass_S-26;
Material, Insul_S-27, Smooth, 0.1959, 0.04, 50, 800, 0.9, 0.7, 0.7;
Construction, Const_S-27, Concrete_Heavy, Insul_S-27, Concrete_Heavy;
Material, Insul_S-28, Smooth, 0.0959, 0.04, 50, 800, 0.9, 0.7, 0.7;
Construction, Const_S-28, Concrete_Heavy, Insul_S-28, Concrete_Heavy;
Material, Insul_S-29, Smooth, 0.0459, 0.04, 50, 800, 0.9, 0.7, 0.7;
Construction, Const_S-29, Concrete_Heavy, Insul_S-29, Concrete_Heavy;
WindowMaterial:SimpleGlazingSystem, Glass_S-29, 2.74, 0.60, 0.8;
Construction, WinConst_S-29, Glass_S-29;
Material, Insul_S-30, Smooth, 0.0459, 0.04, 50, 800, 0.9, 0.7, 0.7;
Construction, Const_S-30, Concrete_Heavy, Insul_S-30, Concrete_Heavy;
WindowMaterial:SimpleGlazingSystem, Glass_S-30, 2.74, 0.60, 0.8;
Construction, WinConst_S-30, Glass_S-30;
Material, Insul_S-31, Smooth, 0.1959, 0.04, 50, 800, 0.9, 0.7, 0.7;
Construction, Const_S-31, Concrete_Heavy, Insul_S-31, Concrete_Heavy;
Material, Insul_S-32, Smooth, 0.0959, 0.04, 50, 800, 0.9, 0.7, 0.7;
Construction, Const_S-32, Concrete_Heavy, Insul_S-32, Concrete_Heavy;
Material, Insul_S-33, Smooth, 0.0459, 0.04, 50, 800, 0.9, 0.7, 0.7;
Construction, Const_S-33, Concrete_Heavy, Insul_S-33, Concrete_Heavy;
WindowMaterial:SimpleGlazingSystem, Glass_S-33, 2.74, 0.60, 0.8;
Construction, WinConst_S-33, Glass_S-33;
Material, Insul_S-34, Smooth, 0.0459, 0.04, 50, 800, 0.9, 0.7, 0.7;
Construction, Const_S-34, Concrete_Heavy, Insul_S-34, Concrete_Heavy;
WindowMaterial:SimpleGlazingSystem, Glass_S-34, 2.74, 0.60, 0.8;
Construction, WinConst_S-34, Glass_S-34;
Material, Insul_S-35, Smooth, 0.1959, 0.04, 50, 800, 0.9, 0.7, 0.7;
Construction, Const_S-35, Concrete_Heavy, Insul_S-35, Concrete_Heavy;
Material, Insul_S-36, Smooth, 0.0959, 0.04, 50, 800, 0.9, 0.7, 0.7;
Construction, Const_S-36, Concrete_Heavy, Insul_S-36, Concrete_Heavy;
Material, Insul_S-37, Smooth, 0.0459, 0.04, 50, 800, 0.9, 0.7, 0.7;
Construction, Const_S-37, Concrete_Heavy, Insul_S-37, Concrete_Heavy;
WindowMaterial:SimpleGlazingSystem, Glass_S-37, 2.74, 0.60, 0.8;
Construction, WinConst_S-37, Glass_S-37;
Material, Insul_S-38, Smooth, 0.0459, 0.04, 50, 800, 0.9, 0.7, 0.7;
Construction, Const_S-38, Concrete_Heavy, Insul_S-38, Concrete_Heavy;
WindowMaterial:SimpleGlazingSystem, Glass_S-38, 2.74, 0.60, 0.8;
Construction, WinConst_S-38, Glass_S-38;
Material, Insul_S-39, Smooth, 0.1959, 0.04, 50, 800, 0.9, 0.7, 0.7;
Construction, Const_S-39, Concrete_Heavy, Insul_S-39, Concrete_Heavy;
Material, Insul_S-40, Smooth, 0.0959, 0.04, 50, 800, 0.9, 0.7, 0.7;
Construction, Const_S-40, Concrete_Heavy, Insul_S-40, Concrete_Heavy;
ScheduleTypeLimits, AnyNumber;
ScheduleTypeLimits, Fraction, 0.0, 1.0, Continuous;
ScheduleTypeLimits, ControlType, 0, 4, Discrete;
Schedule:Compact, AlwaysOn, Fraction, Through: 12/31, For: AllDays, Until: 24:00, 1.0;
Schedule:Compact, ActivitySch, AnyNumber, Through: 12/31, For: AllDays, Until: 24:00, 120.0;
Schedule:Compact, DualZoneControlSch, ControlType, Through: 12/31, For: AllDays, Until: 24:00, 4;
Schedule:Compact, Sch_Office, Fraction, Through: 12/31, For: Weekdays, Until: 08:00, 0.0, Until: 18:00, 1.0, Until: 24:00, 0.0, For: AllOtherDays, Until: 24:00, 0.0;
Schedule:Compact, Sch_Res, Fraction, Through: 12/31, For: Weekdays, Until: 08:00, 1.0, Until: 18:00, 0.0, Until: 24:00, 1.0, For: AllOtherDays, Until: 24:00, 1.0;
Schedule:Compact, Sch_Rest, Fraction, Through: 12/31, For: AllDays, Until: 10:00, 0.0, Until: 14:00, 1.0, Until: 17:00, 0.2, Until: 21:00, 1.0, Until: 24:00, 0.0;
Schedule:Compact, Sch_Lab, Fraction, Through: 12/31, For: AllDays, Until: 24:00, 1.0;
Zone, Z1-1, 0, 0, 0, 0, 1, 1, 3.0, 300.00, 100.00;
ZoneHVAC:EquipmentConnections, Z1-1, Z1-1_Equip, Z1-1_Inlet, , Z1-1_Node, Z1-1_Return;
ZoneHVAC:EquipmentList, Z1-1_Equip, SequentialLoad, ZoneHVAC:IdealLoadsAirSystem, Z1-1_Ideal, 1, 1;
DesignSpecification:OutdoorAir, Z1-1_OA, Sum, 0.0025, 0.0008, , , Sch_Rest;
ZoneHVAC:IdealLoadsAirSystem, Z1-1_Ideal, , Z1-1_Inlet, , , 50, 13, 0.015, 0.008, NoLimit, , , NoLimit, , , , , , , , Z1-1_OA;
Schedule:Compact, Z1-1_HeatSch, AnyNumber, Through: 12/31, For: AllDays, Until: 10:00, 15.0, Until: 21:00, 20, Until: 24:00, 15.0;
Schedule:Compact, Z1-1_CoolSch, AnyNumber, Through: 12/31, For: AllDays, Until: 10:00, 30.0, Until: 21:00, 26, Until: 24:00, 30.0;
ThermostatSetpoint:DualSetpoint, Z1-1_DualSetp, Z1-1_HeatSch, Z1-1_CoolSch;
ZoneControl:Thermostat, Z1-1_Thermostat, Z1-1, DualZoneControlSch, ThermostatSetpoint:DualSetpoint, Z1-1_DualSetp;
People, Z1-1_Ppl, Z1-1, Sch_Rest, People/Area, , 0.1, , , , ActivitySch;
Lights, Z1-1_Lgt, Z1-1, Sch_Rest, Watts/Area, , 10;
ElectricEquipment, Z1-1_Eqp, Z1-1, Sch_Rest, Watts/Area, , 15;
ZoneInfiltration:DesignFlowRate, Z1-1_Inf, Z1-1, AlwaysOn, AirChanges/Hour, , , , 0.5, 1.0, 0.0, 0.0, 0.0;
Zone, Z1-2, 0, 0, 0, 0, 1, 1, 3.0, 300.00, 100.00;
ZoneHVAC:EquipmentConnections, Z1-2, Z1-2_Equip, Z1-2_Inlet, , Z1-2_Node, Z1-2_Return;
ZoneHVAC:EquipmentList, Z1-2_Equip, SequentialLoad, ZoneHVAC:IdealLoadsAirSystem, Z1-2_Ideal, 1, 1;
DesignSpecification:OutdoorAir, Z1-2_OA, Sum, 0.0025, 0.0008, , , Sch_Office;
ZoneHVAC:IdealLoadsAirSystem, Z1-2_Ideal, , Z1-2_Inlet, , , 50, 13, 0.015, 0.008, NoLimit, , , NoLimit, , , , , , , , Z1-2_OA;
Schedule:Compact, Z1-2_HeatSch, AnyNumber, Through: 12/31, For: Weekdays, Until: 08:00, 15.0, Until: 18:00, 20, Until: 24:00, 15.0, For: AllOtherDays, Until: 24:00, 15.0;
Schedule:Compact, Z1-2_CoolSch, AnyNumber, Through: 12/31, For: Weekdays, Until: 08:00, 30.0, Until: 18:00, 26, Until: 24:00, 30.0, For: AllOtherDays, Until: 24:00, 30.0;
ThermostatSetpoint:DualSetpoint, Z1-2_DualSetp, Z1-2_HeatSch, Z1-2_CoolSch;
ZoneControl:Thermostat, Z1-2_Thermostat, Z1-2, DualZoneControlSch, ThermostatSetpoint:DualSetpoint, Z1-2_DualSetp;
People, Z1-2_Ppl, Z1-2, Sch_Office, People/Area, , 0.1, , , , ActivitySch;
Lights, Z1-2_Lgt, Z1-2, Sch_Office, Watts/Area, , 10;
ElectricEquipment, Z1-2_Eqp, Z1-2, Sch_Office, Watts/Area, , 15;
ZoneInfiltration:DesignFlowRate, Z1-2_Inf, Z1-2, AlwaysOn, AirChanges/Hour, , , , 0.5, 1.0, 0.0, 0.0, 0.0;
Zone, Z1-3, 0, 0, 0, 0, 1, 1, 3.0, 300.00, 100.00;
ZoneHVAC:EquipmentConnections, Z1-3, Z1-3_Equip, Z1-3_Inlet, , Z1-3_Node, Z1-3_Return;
ZoneHVAC:EquipmentList, Z1-3_Equip, SequentialLoad, ZoneHVAC:IdealLoadsAirSystem, Z1-3_Ideal, 1, 1;
DesignSpecification:OutdoorAir, Z1-3_OA, Sum, 0.0025, 0.0008, , , Sch_Office;
ZoneHVAC:IdealLoadsAirSystem, Z1-3_Ideal, , Z1-3_Inlet, , , 50, 13, 0.015, 0.008, NoLimit, , , NoLimit, , , , , , , , Z1-3_OA;
Schedule:Compact, Z1-3_HeatSch, AnyNumber, Through: 12/31, For: Weekdays, Until: 08:00, 15.0, Until: 18:00, 20, Until: 24:00, 15.0, For: AllOtherDays, Until: 24:00, 15.0;
Schedule:Compact, Z1-3_CoolSch, AnyNumber, Through: 12/31, For: Weekdays, Until: 08:00, 30.0, Until: 18:00, 26, Until: 24:00, 30.0, For: AllOtherDays, Until: 24:00, 30.0;
ThermostatSetpoint:DualSetpoint, Z1-3_DualSetp, Z1-3_HeatSch, Z1-3_CoolSch;
ZoneControl:Thermostat, Z1-3_Thermostat, Z1-3, DualZoneControlSch, ThermostatSetpoint:DualSetpoint, Z1-3_DualSetp;
People, Z1-3_Ppl, Z1-3, Sch_Office, People/Area, , 0.1, , , , ActivitySch;
Lights, Z1-3_Lgt, Z1-3, Sch_Office, Watts/Area, , 10;
ElectricEquipment, Z1-3_Eqp, Z1-3, Sch_Office, Watts/Area, , 15;
ZoneInfiltration:DesignFlowRate, Z1-3_Inf, Z1-3, AlwaysOn, AirChanges/Hour, , , , 0.5, 1.0, 0.0, 0.0, 0.0;
Zone, Z1-4, 0, 0, 0, 0, 1, 1, 3.0, 300.00, 100.00;
ZoneHVAC:EquipmentConnections, Z1-4, Z1-4_Equip, Z1-4_Inlet, , Z1-4_Node, Z1-4_Return;
ZoneHVAC:EquipmentList, Z1-4_Equip, SequentialLoad, ZoneHVAC:IdealLoadsAirSystem, Z1-4_Ideal, 1, 1;
DesignSpecification:OutdoorAir, Z1-4_OA, Sum, 0.0025, 0.0008, , , Sch_Office;
ZoneHVAC:IdealLoadsAirSystem, Z1-4_Ideal, , Z1-4_Inlet, , , 50, 13, 0.015, 0.008, NoLimit, , , NoLimit, , , , , , , , Z1-4_OA;
Schedule:Compact, Z1-4_HeatSch, AnyNumber, Through: 12/31, For: Weekdays, Until: 08:00, 15.0, Until: 18:00, 20, Until: 24:00, 15.0, For: AllOtherDays, Until: 24:00, 15.0;
Schedule:Compact, Z1-4_CoolSch, AnyNumber, Through: 12/31, For: Weekdays, Until: 08:00, 30.0, Until: 18:00, 26, Until: 24:00, 30.0, For: AllOtherDays, Until: 24:00, 30.0;
ThermostatSetpoint:DualSetpoint, Z1-4_DualSetp, Z1-4_HeatSch, Z1-4_CoolSch;
ZoneControl:Thermostat, Z1-4_Thermostat, Z1-4, DualZoneControlSch, ThermostatSetpoint:DualSetpoint, Z1-4_DualSetp;
People, Z1-4_Ppl, Z1-4, Sch_Office, People/Area, , 0.1, , , , ActivitySch;
Lights, Z1-4_Lgt, Z1-4, Sch_Office, Watts/Area, , 10;
ElectricEquipment, Z1-4_Eqp, Z1-4, Sch_Office, Watts/Area, , 15;
ZoneInfiltration:DesignFlowRate, Z1-4_Inf, Z1-4, AlwaysOn, AirChanges/Hour, , , , 0.5, 1.0, 0.0, 0.0, 0.0;
Zone, Z2-1, 0, 0, 0, 0, 1, 1, 3.0, 300.00, 100.00;
ZoneHVAC:EquipmentConnections, Z2-1, Z2-1_Equip, Z2-1_Inlet, , Z2-1_Node, Z2-1_Return;
ZoneHVAC:EquipmentList, Z2-1_Equip, SequentialLoad, ZoneHVAC:IdealLoadsAirSystem, Z2-1_Ideal, 1, 1;
DesignSpecification:OutdoorAir, Z2-1_OA, Sum, 0.0025, 0.0008, , , Sch_Office;
ZoneHVAC:IdealLoadsAirSystem, Z2-1_Ideal, , Z2-1_Inlet, , , 50, 13, 0.015, 0.008, NoLimit, , , NoLimit, , , , , , , , Z2-1_OA;
Schedule:Compact, Z2-1_HeatSch, AnyNumber, Through: 12/31, For: Weekdays, Until: 08:00, 15.0, Until: 18:00, 20, Until: 24:00, 15.0, For: AllOtherDays, Until: 24:00, 15.0;
Schedule:Compact, Z2-1_CoolSch, AnyNumber, Through: 12/31, For: Weekdays, Until: 08:00, 30.0, Until: 18:00, 26, Until: 24:00, 30.0, For: AllOtherDays, Until: 24:00, 30.0;
ThermostatSetpoint:DualSetpoint, Z2-1_DualSetp, Z2-1_HeatSch, Z2-1_CoolSch;
ZoneControl:Thermostat, Z2-1_Thermostat, Z2-1, DualZoneControlSch, ThermostatSetpoint:DualSetpoint, Z2-1_DualSetp;
People, Z2-1_Ppl, Z2-1, Sch_Office, People/Area, , 0.1, , , , ActivitySch;
Lights, Z2-1_Lgt, Z2-1, Sch_Office, Watts/Area, , 10;
ElectricEquipment, Z2-1_Eqp, Z2-1, Sch_Office, Watts/Area, , 15;
ZoneInfiltration:DesignFlowRate, Z2-1_Inf, Z2-1, AlwaysOn, AirChanges/Hour, , , , 0.5, 1.0, 0.0, 0.0, 0.0;
Zone, Z2-2, 0, 0, 0, 0, 1, 1, 3.0, 300.00, 100.00;
ZoneHVAC:EquipmentConnections, Z2-2, Z2-2_Equip, Z2-2_Inlet, , Z2-2_Node, Z2-2_Return;
ZoneHVAC:EquipmentList, Z2-2_Equip, SequentialLoad, ZoneHVAC:IdealLoadsAirSystem, Z2-2_Ideal, 1, 1;
DesignSpecification:OutdoorAir, Z2-2_OA, Sum, 0.0025, 0.0008, , , Sch_Office;
ZoneHVAC:IdealLoadsAirSystem, Z2-2_Ideal, , Z2-2_Inlet, , , 50, 13, 0.015, 0.008, NoLimit, , , NoLimit, , , , , , , , Z2-2_OA;
Schedule:Compact, Z2-2_HeatSch, AnyNumber, Through: 12/31, For: Weekdays, Until: 08:00, 15.0, Until: 18:00, 20, Until: 24:00, 15.0, For: AllOtherDays, Until: 24:00, 15.0;
Schedule:Compact, Z2-2_CoolSch, AnyNumber, Through: 12/31, For: Weekdays, Until: 08:00, 30.0, Until: 18:00, 26, Until: 24:00, 30.0, For: AllOtherDays, Until: 24:00, 30.0;
ThermostatSetpoint:DualSetpoint, Z2-2_DualSetp, Z2-2_HeatSch, Z2-2_CoolSch;
ZoneControl:Thermostat, Z2-2_Thermostat, Z2-2, DualZoneControlSch, ThermostatSetpoint:DualSetpoint, Z2-2_DualSetp;
People, Z2-2_Ppl, Z2-2, Sch_Office, People/Area, , 0.1, , , , ActivitySch;
Lights, Z2-2_Lgt, Z2-2, Sch_Office, Watts/Area, , 10;
ElectricEquipment, Z2-2_Eqp, Z2-2, Sch_Office, Watts/Area, , 15;
ZoneInfiltration:DesignFlowRate, Z2-2_Inf, Z2-2, AlwaysOn, AirChanges/Hour, , , , 0.5, 1.0, 0.0, 0.0, 0.0;
Zone, Z2-3, 0, 0, 0, 0, 1, 1, 3.0, 300.00, 100.00;
ZoneHVAC:EquipmentConnections, Z2-3, Z2-3_Equip, Z2-3_Inlet, , Z2-3_Node, Z2-3_Return;
ZoneHVAC:EquipmentList, Z2-3_Equip, SequentialLoad, ZoneHVAC:IdealLoadsAirSystem, Z2-3_Ideal, 1, 1;
DesignSpecification:OutdoorAir, Z2-3_OA, Sum, 0.0025, 0.0008, , , Sch_Office;
ZoneHVAC:IdealLoadsAirSystem, Z2-3_Ideal, , Z2-3_Inlet, , , 50, 13, 0.015, 0.008, NoLimit, , , NoLimit, , , , , , , , Z2-3_OA;
Schedule:Compact, Z2-3_HeatSch, AnyNumber, Through: 12/31, For: Weekdays, Until: 08:00, 15.0, Until: 18:00, 20, Until: 24:00, 15.0, For: AllOtherDays, Until: 24:00, 15.0;
Schedule:Compact, Z2-3_CoolSch, AnyNumber, Through: 12/31, For: Weekdays, Until: 08:00, 30.0, Until: 18:00, 26, Until: 24:00, 30.0, For: AllOtherDays, Until: 24:00, 30.0;
ThermostatSetpoint:DualSetpoint, Z2-3_DualSetp, Z2-3_HeatSch, Z2-3_CoolSch;
ZoneControl:Thermostat, Z2-3_Thermostat, Z2-3, DualZoneControlSch, ThermostatSetpoint:DualSetpoint, Z2-3_DualSetp;
People, Z2-3_Ppl, Z2-3, Sch_Office, People/Area, , 0.1, , , , ActivitySch;
Lights, Z2-3_Lgt, Z2-3, Sch_Office, Watts/Area, , 10;
ElectricEquipment, Z2-3_Eqp, Z2-3, Sch_Office, Watts/Area, , 15;
ZoneInfiltration:DesignFlowRate, Z2-3_Inf, Z2-3, AlwaysOn, AirChanges/Hour, , , , 0.5, 1.0, 0.0, 0.0, 0.0;
Zone, Z2-4, 0, 0, 0, 0, 1, 1, 3.0, 300.00, 100.00;
ZoneHVAC:EquipmentConnections, Z2-4, Z2-4_Equip, Z2-4_Inlet, , Z2-4_Node, Z2-4_Return;
ZoneHVAC:EquipmentList, Z2-4_Equip, SequentialLoad, ZoneHVAC:IdealLoadsAirSystem, Z2-4_Ideal, 1, 1;
DesignSpecification:OutdoorAir, Z2-4_OA, Sum, 0.0025, 0.0008, , , Sch_Office;
ZoneHVAC:IdealLoadsAirSystem, Z2-4_Ideal, , Z2-4_Inlet, , , 50, 13, 0.015, 0.008, NoLimit, , , NoLimit, , , , , , , , Z2-4_OA;
Schedule:Compact, Z2-4_HeatSch, AnyNumber, Through: 12/31, For: Weekdays, Until: 08:00, 15.0, Until: 18:00, 20, Until: 24:00, 15.0, For: AllOtherDays, Until: 24:00, 15.0;
Schedule:Compact, Z2-4_CoolSch, AnyNumber, Through: 12/31, For: Weekdays, Until: 08:00, 30.0, Until: 18:00, 26, Until: 24:00, 30.0, For: AllOtherDays, Until: 24:00, 30.0;
ThermostatSetpoint:DualSetpoint, Z2-4_DualSetp, Z2-4_HeatSch, Z2-4_CoolSch;
ZoneControl:Thermostat, Z2-4_Thermostat, Z2-4, DualZoneControlSch, ThermostatSetpoint:DualSetpoint, Z2-4_DualSetp;
People, Z2-4_Ppl, Z2-4, Sch_Office, People/Area, , 0.1, , , , ActivitySch;
Lights, Z2-4_Lgt, Z2-4, Sch_Office, Watts/Area, , 10;
ElectricEquipment, Z2-4_Eqp, Z2-4, Sch_Office, Watts/Area, , 15;
ZoneInfiltration:DesignFlowRate, Z2-4_Inf, Z2-4, AlwaysOn, AirChanges/Hour, , , , 0.5, 1.0, 0.0, 0.0, 0.0;
Zone, Z3-1, 0, 0, 0, 0, 1, 1, 3.0, 300.00, 100.00;
ZoneHVAC:EquipmentConnections, Z3-1, Z3-1_Equip, Z3-1_Inlet, , Z3-1_Node, Z3-1_Return;
ZoneHVAC:EquipmentList, Z3-1_Equip, SequentialLoad, ZoneHVAC:IdealLoadsAirSystem, Z3-1_Ideal, 1, 1;
DesignSpecification:OutdoorAir, Z3-1_OA, Sum, 0.0025, 0.0008, , , Sch_Office;
ZoneHVAC:IdealLoadsAirSystem, Z3-1_Ideal, , Z3-1_Inlet, , , 50, 13, 0.015, 0.008, NoLimit, , , NoLimit, , , , , , , , Z3-1_OA;
Schedule:Compact, Z3-1_HeatSch, AnyNumber, Through: 12/31, For: Weekdays, Until: 08:00, 15.0, Until: 18:00, 20, Until: 24:00, 15.0, For: AllOtherDays, Until: 24:00, 15.0;
Schedule:Compact, Z3-1_CoolSch, AnyNumber, Through: 12/31, For: Weekdays, Until: 08:00, 30.0, Until: 18:00, 26, Until: 24:00, 30.0, For: AllOtherDays, Until: 24:00, 30.0;
ThermostatSetpoint:DualSetpoint, Z3-1_DualSetp, Z3-1_HeatSch, Z3-1_CoolSch;
ZoneControl:Thermostat, Z3-1_Thermostat, Z3-1, DualZoneControlSch, ThermostatSetpoint:DualSetpoint, Z3-1_DualSetp;
People, Z3-1_Ppl, Z3-1, Sch_Office, People/Area, , 0.1, , , , ActivitySch;
Lights, Z3-1_Lgt, Z3-1, Sch_Office, Watts/Area, , 10;
ElectricEquipment, Z3-1_Eqp, Z3-1, Sch_Office, Watts/Area, , 15;
ZoneInfiltration:DesignFlowRate, Z3-1_Inf, Z3-1, AlwaysOn, AirChanges/Hour, , , , 0.5, 1.0, 0.0, 0.0, 0.0;
Zone, Z3-2, 0, 0, 0, 0, 1, 1, 3.0, 300.00, 100.00;
ZoneHVAC:EquipmentConnections, Z3-2, Z3-2_Equip, Z3-2_Inlet, , Z3-2_Node, Z3-2_Return;
ZoneHVAC:EquipmentList, Z3-2_Equip, SequentialLoad, ZoneHVAC:IdealLoadsAirSystem, Z3-2_Ideal, 1, 1;
DesignSpecification:OutdoorAir, Z3-2_OA, Sum, 0.0025, 0.0008, , , Sch_Office;
ZoneHVAC:IdealLoadsAirSystem, Z3-2_Ideal, , Z3-2_Inlet, , , 50, 13, 0.015, 0.008, NoLimit, , , NoLimit, , , , , , , , Z3-2_OA;
Schedule:Compact, Z3-2_HeatSch, AnyNumber, Through: 12/31, For: Weekdays, Until: 08:00, 15.0, Until: 18:00, 20, Until: 24:00, 15.0, For: AllOtherDays, Until: 24:00, 15.0;
Schedule:Compact, Z3-2_CoolSch, AnyNumber, Through: 12/31, For: Weekdays, Until: 08:00, 30.0, Until: 18:00, 26, Until: 24:00, 30.0, For: AllOtherDays, Until: 24:00, 30.0;
ThermostatSetpoint:DualSetpoint, Z3-2_DualSetp, Z3-2_HeatSch, Z3-2_CoolSch;
ZoneControl:Thermostat, Z3-2_Thermostat, Z3-2, DualZoneControlSch, ThermostatSetpoint:DualSetpoint, Z3-2_DualSetp;
People, Z3-2_Ppl, Z3-2, Sch_Office, People/Area, , 0.1, , , , ActivitySch;
Lights, Z3-2_Lgt, Z3-2, Sch_Office, Watts/Area, , 10;
ElectricEquipment, Z3-2_Eqp, Z3-2, Sch_Office, Watts/Area, , 15;
ZoneInfiltration:DesignFlowRate, Z3-2_Inf, Z3-2, AlwaysOn, AirChanges/Hour, , , , 0.5, 1.0, 0.0, 0.0, 0.0;
Zone, Z3-3, 0, 0, 0, 0, 1, 1, 3.0, 300.00, 100.00;
ZoneHVAC:EquipmentConnections, Z3-3, Z3-3_Equip, Z3-3_Inlet, , Z3-3_Node, Z3-3_Return;
ZoneHVAC:EquipmentList, Z3-3_Equip, SequentialLoad, ZoneHVAC:IdealLoadsAirSystem, Z3-3_Ideal, 1, 1;
DesignSpecification:OutdoorAir, Z3-3_OA, Sum, 0.0025, 0.0008, , , Sch_Office;
ZoneHVAC:IdealLoadsAirSystem, Z3-3_Ideal, , Z3-3_Inlet, , , 50, 13, 0.015, 0.008, NoLimit, , , NoLimit, , , , , , , , Z3-3_OA;
Schedule:Compact, Z3-3_HeatSch, AnyNumber, Through: 12/31, For: Weekdays, Until: 08:00, 15.0, Until: 18:00, 20, Until: 24:00, 15.0, For: AllOtherDays, Until: 24:00, 15.0;
Schedule:Compact, Z3-3_CoolSch, AnyNumber, Through: 12/31, For: Weekdays, Until: 08:00, 30.0, Until: 18:00, 26, Until: 24:00, 30.0, For: AllOtherDays, Until: 24:00, 30.0;
ThermostatSetpoint:DualSetpoint, Z3-3_DualSetp, Z3-3_HeatSch, Z3-3_CoolSch;
ZoneControl:Thermostat, Z3-3_Thermostat, Z3-3, DualZoneControlSch, ThermostatSetpoint:DualSetpoint, Z3-3_DualSetp;
People, Z3-3_Ppl, Z3-3, Sch_Office, People/Area, , 0.1, , , , ActivitySch;
Lights, Z3-3_Lgt, Z3-3, Sch_Office, Watts/Area, , 10;
ElectricEquipment, Z3-3_Eqp, Z3-3, Sch_Office, Watts/Area, , 15;
ZoneInfiltration:DesignFlowRate, Z3-3_Inf, Z3-3, AlwaysOn, AirChanges/Hour, , , , 0.5, 1.0, 0.0, 0.0, 0.0;
Zone, Z3-4, 0, 0, 0, 0, 1, 1, 3.0, 300.00, 100.00;
ZoneHVAC:EquipmentConnections, Z3-4, Z3-4_Equip, Z3-4_Inlet, , Z3-4_Node, Z3-4_Return;
ZoneHVAC:EquipmentList, Z3-4_Equip, SequentialLoad, ZoneHVAC:IdealLoadsAirSystem, Z3-4_Ideal, 1, 1;
DesignSpecification:OutdoorAir, Z3-4_OA, Sum, 0.0025, 0.0008, , , Sch_Office;
ZoneHVAC:IdealLoadsAirSystem, Z3-4_Ideal, , Z3-4_Inlet, , , 50, 13, 0.015, 0.008, NoLimit, , , NoLimit, , , , , , , , Z3-4_OA;
Schedule:Compact, Z3-4_HeatSch, AnyNumber, Through: 12/31, For: Weekdays, Until: 08:00, 15.0, Until: 18:00, 20, Until: 24:00, 15.0, For: AllOtherDays, Until: 24:00, 15.0;
Schedule:Compact, Z3-4_CoolSch, AnyNumber, Through: 12/31, For: Weekdays, Until: 08:00, 30.0, Until: 18:00, 26, Until: 24:00, 30.0, For: AllOtherDays, Until: 24:00, 30.0;
ThermostatSetpoint:DualSetpoint, Z3-4_DualSetp, Z3-4_HeatSch, Z3-4_CoolSch;
ZoneControl:Thermostat, Z3-4_Thermostat, Z3-4, DualZoneControlSch, ThermostatSetpoint:DualSetpoint, Z3-4_DualSetp;
People, Z3-4_Ppl, Z3-4, Sch_Office, People/Area, , 0.1, , , , ActivitySch;
Lights, Z3-4_Lgt, Z3-4, Sch_Office, Watts/Area, , 10;
ElectricEquipment, Z3-4_Eqp, Z3-4, Sch_Office, Watts/Area, , 15;
ZoneInfiltration:DesignFlowRate, Z3-4_Inf, Z3-4, AlwaysOn, AirChanges/Hour, , , , 0.5, 1.0, 0.0, 0.0, 0.0;
BuildingSurface:Detailed, S-1, Wall, Const_S-1, Z1-1, , Outdoors, , SunExposed, WindExposed, Autocalculate, 4,
  0.0000, 10.0000, 0.0000,
  -10.0000, 10.0000, 0.0000,
  -10.0000, 10.0000, 3.0000,
  0.0000, 10.0000, 3.0000;
FenestrationSurface:Detailed, Win_S-1, Window, WinConst_S-1, S-1, , Autocalculate, , 1, 4,
  -2.5000, 10.0000, 0.7500,
  -7.5000, 10.0000, 0.7500,
  -7.5000, 10.0000, 2.2500,
  -2.5000, 10.0000, 2.2500;
BuildingSurface:Detailed, S-2, Wall, Const_S-2, Z1-1, , Outdoors, , SunExposed, WindExposed, Autocalculate, 4,
  -10.0000, 10.0000, 0.0000,
  -10.0000, 0.0000, 0.0000,
  -10.0000, 0.0000, 3.0000,
  -10.0000, 10.0000, 3.0000;
FenestrationSurface:Detailed, Win_S-2, Window, WinConst_S-2, S-2, , Autocalculate, , 1, 4,
  -10.0000, 7.5000, 0.7500,
  -10.0000, 2.5000, 0.7500,
  -10.0000, 2.5000, 2.2500,
  -10.0000, 7.5000, 2.2500;
BuildingSurface:Detailed, S-3, Floor, Const_S-3, Z1-1, , Outdoors, , SunExposed, WindExposed, Autocalculate, 4,
  -10.0000, 10.0000, -0.0000,
  0.0000, 10.0000, -0.0000,
  0.0000, 0.0000, 0.0000,
  -10.0000, 0.0000, 0.0000;
BuildingSurface:Detailed, S-4, Wall, Const_S-4, Z1-2, , Outdoors, , SunExposed, WindExposed, Autocalculate, 4,
  10.0000, 10.0000, 0.0000,
  0.0000, 10.0000, 0.0000,
  0.0000, 10.0000, 3.0000,
  10.0000, 10.0000, 3.0000;
FenestrationSurface:Detailed, Win_S-4, Window, WinConst_S-4, S-4, , Autocalculate, , 1, 4,
  7.5000, 10.0000, 0.7500,
  2.5000, 10.0000, 0.7500,
  2.5000, 10.0000, 2.2500,
  7.5000, 10.0000, 2.2500;
BuildingSurface:Detailed, S-5, Wall, Const_S-5, Z1-2, , Outdoors, , SunExposed, WindExposed, Autocalculate, 4,
  10.0000, 0.0000, 0.0000,
  10.0000, 10.0000, 0.0000,
  10.0000, 10.0000, 3.0000,
  10.0000, 0.0000, 3.0000;
FenestrationSurface:Detailed, Win_S-5, Window, WinConst_S-5, S-5, , Autocalculate, , 1, 4,
  10.0000, 2.5000, 0.7500,
  10.0000, 7.5000, 0.7500,
  10.0000, 7.5000, 2.2500,
  10.0000, 2.5000, 2.2500;
BuildingSurface:Detailed, S-6, Floor, Const_S-6, Z1-2, , Outdoors, , SunExposed, WindExposed, Autocalculate, 4,
  0.0000, 10.0000, -0.0000,
  10.0000, 10.0000, -0.0000,
  10.0000, 0.0000, 0.0000,
  0.0000, 0.0000, 0.0000;
BuildingSurface:Detailed, S-7, Wall, Const_S-7, Z1-3, , Outdoors, , SunExposed, WindExposed, Autocalculate, 4,
  -10.0000, -10.0000, 0.0000,
  0.0000, -10.0000, 0.0000,
  0.0000, -10.0000, 3.0000,
  -10.0000, -10.0000, 3.0000;
FenestrationSurface:Detailed, Win_S-7, Window, WinConst_S-7, S-7, , Autocalculate, , 1, 4,
  -7.5000, -10.0000, 0.7500,
  -2.5000, -10.0000, 0.7500,
  -2.5000, -10.0000, 2.2500,
  -7.5000, -10.0000, 2.2500;
BuildingSurface:Detailed, S-8, Wall, Const_S-8, Z1-3, , Outdoors, , SunExposed, WindExposed, Autocalculate, 4,
  -10.0000, 0.0000, 0.0000,
  -10.0000, -10.0000, 0.0000,
  -10.0000, -10.0000, 3.0000,
  -10.0000, 0.0000, 3.0000;
FenestrationSurface:Detailed, Win_S-8, Window, WinConst_S-8, S-8, , Autocalculate, , 1, 4,
  -10.0000, -2.5000, 0.7500,
  -10.0000, -7.5000, 0.7500,
  -10.0000, -7.5000, 2.2500,
  -10.0000, -2.5000, 2.2500;
BuildingSurface:Detailed, S-9, Floor, Const_S-9, Z1-3, , Outdoors, , SunExposed, WindExposed, Autocalculate, 4,
  -10.0000, 0.0000, -0.0000,
  0.0000, 0.0000, -0.0000,
  0.0000, -10.0000, 0.0000,
  -10.0000, -10.0000, 0.0000;
BuildingSurface:Detailed, S-10, Wall, Const_S-10, Z1-4, , Outdoors, , SunExposed, WindExposed, Autocalculate, 4,
  0.0000, -10.0000, 0.0000,
  10.0000, -10.0000, 0.0000,
  10.0000, -10.0000, 3.0000,
  0.0000, -10.0000, 3.0000;
FenestrationSurface:Detailed, Win_S-10, Window, WinConst_S-10, S-10, , Autocalculate, , 1, 4,
  2.5000, -10.0000, 0.7500,
  7.5000, -10.0000, 0.7500,
  7.5000, -10.0000, 2.2500,
  2.5000, -10.0000, 2.2500;
BuildingSurface:Detailed, S-11, Wall, Const_S-11, Z1-4, , Outdoors, , SunExposed, WindExposed, Autocalculate, 4,
  10.0000, -10.0000, 0.0000,
  10.0000, 0.0000, 0.0000,
  10.0000, 0.0000, 3.0000,
  10.0000, -10.0000, 3.0000;
FenestrationSurface:Detailed, Win_S-11, Window, WinConst_S-11, S-11, , Autocalculate, , 1, 4,
  10.0000, -7.5000, 0.7500,
  10.0000, -2.5000, 0.7500,
  10.0000, -2.5000, 2.2500,
  10.0000, -7.5000, 2.2500;
BuildingSurface:Detailed, S-12, Floor, Const_S-12, Z1-4, , Outdoors, , SunExposed, WindExposed, Autocalculate, 4,
  0.0000, 0.0000, -0.0000,
  10.0000, 0.0000, -0.0000,
  10.0000, -10.0000, 0.0000,
  0.0000, -10.0000, 0.0000;
BuildingSurface:Detailed, S-13, Wall, Const_S-13, Z2-1, , Outdoors, , SunExposed, WindExposed, Autocalculate, 4,
  0.0000, 10.0000, 3.0000,
  -10.0000, 10.0000, 3.0000,
  -10.0000, 10.0000, 6.0000,
  0.0000, 10.0000, 6.0000;
FenestrationSurface:Detailed, Win_S-13, Window, WinConst_S-13, S-13, , Autocalculate, , 1, 4,
  -2.5000, 10.0000, 3.7500,
  -7.5000, 10.0000, 3.7500,
  -7.5000, 10.0000, 5.2500,
  -2.5000, 10.0000, 5.2500;
BuildingSurface:Detailed, S-14, Wall, Const_S-14, Z2-1, , Outdoors, , SunExposed, WindExposed, Autocalculate, 4,
  -10.0000, 10.0000, 3.0000,
  -10.0000, 0.0000, 3.0000,
  -10.0000, 0.0000, 6.0000,
  -10.0000, 10.0000, 6.0000;
FenestrationSurface:Detailed, Win_S-14, Window, WinConst_S-14, S-14, , Autocalculate, , 1, 4,
  -10.0000, 7.5000, 3.7500,
  -10.0000, 2.5000, 3.7500,
  -10.0000, 2.5000, 5.2500,
  -10.0000, 7.5000, 5.2500;
BuildingSurface:Detailed, S-15, Floor, Const_S-15, Z2-1, , Outdoors, , SunExposed, WindExposed, Autocalculate, 4,
  -10.0000, 10.0000, 3.0000,
  0.0000, 10.0000, 3.0000,
  0.0000, 0.0000, 3.0000,
  -10.0000, 0.0000, 3.0000;
BuildingSurface:Detailed, S-16, Wall, Const_S-16, Z2-2, , Outdoors, , SunExposed, WindExposed, Autocalculate, 4,
  10.0000, 10.0000, 3.0000,
  0.0000, 10.0000, 3.0000,
  0.0000, 10.0000, 6.0000,
  10.0000, 10.0000, 6.0000;
FenestrationSurface:Detailed, Win_S-16, Window, WinConst_S-16, S-16, , Autocalculate, , 1, 4,
  7.5000, 10.0000, 3.7500,
  2.5000, 10.0000, 3.7500,
  2.5000, 10.0000, 5.2500,
  7.5000, 10.0000, 5.2500;
BuildingSurface:Detailed, S-17, Wall, Const_S-17, Z2-2, , Outdoors, , SunExposed, WindExposed, Autocalculate, 4,
  10.0000, 0.0000, 3.0000,
  10.0000, 10.0000, 3.0000,
  10.0000, 10.0000, 6.0000,
  10.0000, 0.0000, 6.0000;
FenestrationSurface:Detailed, Win_S-17, Window, WinConst_S-17, S-17, , Autocalculate, , 1, 4,
  10.0000, 2.5000, 3.7500,
  10.0000, 7.5000, 3.7500,
  10.0000, 7.5000, 5.2500,
  10.0000, 2.5000, 5.2500;
BuildingSurface:Detailed, S-18, Floor, Const_S-18, Z2-2, , Outdoors, , SunExposed, WindExposed, Autocalculate, 4,
  0.0000, 10.0000, 3.0000,
  10.0000, 10.0000, 3.0000,
  10.0000, 0.0000, 3.0000,
  0.0000, 0.0000, 3.0000;
BuildingSurface:Detailed, S-19, Wall, Const_S-19, Z2-3, , Outdoors, , SunExposed, WindExposed, Autocalculate, 4,
  -10.0000, -10.0000, 3.0000,
  0.0000, -10.0000, 3.0000,
  0.0000, -10.0000, 6.0000,
  -10.0000, -10.0000, 6.0000;
FenestrationSurface:Detailed, Win_S-19, Window, WinConst_S-19, S-19, , Autocalculate, , 1, 4,
  -7.5000, -10.0000, 3.7500,
  -2.5000, -10.0000, 3.7500,
  -2.5000, -10.0000, 5.2500,
  -7.5000, -10.0000, 5.2500;
BuildingSurface:Detailed, S-20, Wall, Const_S-20, Z2-3, , Outdoors, , SunExposed, WindExposed, Autocalculate, 4,
  -10.0000, 0.0000, 3.0000,
  -10.0000, -10.0000, 3.0000,
  -10.0000, -10.0000, 6.0000,
  -10.0000, 0.0000, 6.0000;
FenestrationSurface:Detailed, Win_S-20, Window, WinConst_S-20, S-20, , Autocalculate, , 1, 4,
  -10.0000, -2.5000, 3.7500,
  -10.0000, -7.5000, 3.7500,
  -10.0000, -7.5000, 5.2500,
  -10.0000, -2.5000, 5.2500;
BuildingSurface:Detailed, S-21, Floor, Const_S-21, Z2-3, , Outdoors, , SunExposed, WindExposed, Autocalculate, 4,
  -10.0000, 0.0000, 3.0000,
  0.0000, 0.0000, 3.0000,
  0.0000, -10.0000, 3.0000,
  -10.0000, -10.0000, 3.0000;
BuildingSurface:Detailed, S-22, Wall, Const_S-22, Z2-4, , Outdoors, , SunExposed, WindExposed, Autocalculate, 4,
  0.0000, -10.0000, 3.0000,
  10.0000, -10.0000, 3.0000,
  10.0000, -10.0000, 6.0000,
  0.0000, -10.0000, 6.0000;
FenestrationSurface:Detailed, Win_S-22, Window, WinConst_S-22, S-22, , Autocalculate, , 1, 4,
  2.5000, -10.0000, 3.7500,
  7.5000, -10.0000, 3.7500,
  7.5000, -10.0000, 5.2500,
  2.5000, -10.0000, 5.2500;
BuildingSurface:Detailed, S-23, Wall, Const_S-23, Z2-4, , Outdoors, , SunExposed, WindExposed, Autocalculate, 4,
  10.0000, -10.0000, 3.0000,
  10.0000, 0.0000, 3.0000,
  10.0000, 0.0000, 6.0000,
  10.0000, -10.0000, 6.0000;
FenestrationSurface:Detailed, Win_S-23, Window, WinConst_S-23, S-23, , Autocalculate, , 1, 4,
  10.0000, -7.5000, 3.7500,
  10.0000, -2.5000, 3.7500,
  10.0000, -2.5000, 5.2500,
  10.0000, -7.5000, 5.2500;
BuildingSurface:Detailed, S-24, Floor, Const_S-24, Z2-4, , Outdoors, , SunExposed, WindExposed, Autocalculate, 4,
  0.0000, 0.0000, 3.0000,
  10.0000, 0.0000, 3.0000,
  10.0000, -10.0000, 3.0000,
  0.0000, -10.0000, 3.0000;
BuildingSurface:Detailed, S-25, Wall, Const_S-25, Z3-1, , Outdoors, , SunExposed, WindExposed, Autocalculate, 4,
  0.0000, 10.0000, 6.0000,
  -10.0000, 10.0000, 6.0000,
  -10.0000, 10.0000, 9.0000,
  0.0000, 10.0000, 9.0000;
FenestrationSurface:Detailed, Win_S-25, Window, WinConst_S-25, S-25, , Autocalculate, , 1, 4,
  -2.5000, 10.0000, 6.7500,
  -7.5000, 10.0000, 6.7500,
  -7.5000, 10.0000, 8.2500,
  -2.5000, 10.0000, 8.2500;
BuildingSurface:Detailed, S-26, Wall, Const_S-26, Z3-1, , Outdoors, , SunExposed, WindExposed, Autocalculate, 4,
  -10.0000, 10.0000, 6.0000,
  -10.0000, 0.0000, 6.0000,
  -10.0000, 0.0000, 9.0000,
  -10.0000, 10.0000, 9.0000;
FenestrationSurface:Detailed, Win_S-26, Window, WinConst_S-26, S-26, , Autocalculate, , 1, 4,
  -10.0000, 7.5000, 6.7500,
  -10.0000, 2.5000, 6.7500,
  -10.0000, 2.5000, 8.2500,
  -10.0000, 7.5000, 8.2500;
BuildingSurface:Detailed, S-27, Roof, Const_S-27, Z3-1, , Outdoors, , SunExposed, WindExposed, Autocalculate, 4,
  -10.0000, 0.0000, 9.0000,
  0.0000, 0.0000, 9.0000,
  0.0000, 10.0000, 9.0000,
  -10.0000, 10.0000, 9.0000;
BuildingSurface:Detailed, S-28, Floor, Const_S-28, Z3-1, , Outdoors, , SunExposed, WindExposed, Autocalculate, 4,
  -10.0000, 10.0000, 6.0000,
  0.0000, 10.0000, 6.0000,
  0.0000, 0.0000, 6.0000,
  -10.0000, 0.0000, 6.0000;
BuildingSurface:Detailed, S-29, Wall, Const_S-29, Z3-2, , Outdoors, , SunExposed, WindExposed, Autocalculate, 4,
  10.0000, 10.0000, 6.0000,
  0.0000, 10.0000, 6.0000,
  0.0000, 10.0000, 9.0000,
  10.0000, 10.0000, 9.0000;
FenestrationSurface:Detailed, Win_S-29, Window, WinConst_S-29, S-29, , Autocalculate, , 1, 4,
  7.5000, 10.0000, 6.7500,
  2.5000, 10.0000, 6.7500,
  2.5000, 10.0000, 8.2500,
  7.5000, 10.0000, 8.2500;
BuildingSurface:Detailed, S-30, Wall, Const_S-30, Z3-2, , Outdoors, , SunExposed, WindExposed, Autocalculate, 4,
  10.0000, 0.0000, 6.0000,
  10.0000, 10.0000, 6.0000,
  10.0000, 10.0000, 9.0000,
  10.0000, 0.0000, 9.0000;
FenestrationSurface:Detailed, Win_S-30, Window, WinConst_S-30, S-30, , Autocalculate, , 1, 4,
  10.0000, 2.5000, 6.7500,
  10.0000, 7.5000, 6.7500,
  10.0000, 7.5000, 8.2500,
  10.0000, 2.5000, 8.2500;
BuildingSurface:Detailed, S-31, Roof, Const_S-31, Z3-2, , Outdoors, , SunExposed, WindExposed, Autocalculate, 4,
  0.0000, 0.0000, 9.0000,
  10.0000, 0.0000, 9.0000,
  10.0000, 10.0000, 9.0000,
  0.0000, 10.0000, 9.0000;
BuildingSurface:Detailed, S-32, Floor, Const_S-32, Z3-2, , Outdoors, , SunExposed, WindExposed, Autocalculate, 4,
  0.0000, 10.0000, 6.0000,
  10.0000, 10.0000, 6.0000,
  10.0000, 0.0000, 6.0000,
  0.0000, 0.0000, 6.0000;
BuildingSurface:Detailed, S-33, Wall, Const_S-33, Z3-3, , Outdoors, , SunExposed, WindExposed, Autocalculate, 4,
  -10.0000, -10.0000, 6.0000,
  0.0000, -10.0000, 6.0000,
  0.0000, -10.0000, 9.0000,
  -10.0000, -10.0000, 9.0000;
FenestrationSurface:Detailed, Win_S-33, Window, WinConst_S-33, S-33, , Autocalculate, , 1, 4,
  -7.5000, -10.0000, 6.7500,
  -2.5000, -10.0000, 6.7500,
  -2.5000, -10.0000, 8.2500,
  -7.5000, -10.0000, 8.2500;
BuildingSurface:Detailed, S-34, Wall, Const_S-34, Z3-3, , Outdoors, , SunExposed, WindExposed, Autocalculate, 4,
  -10.0000, 0.0000, 6.0000,
  -10.0000, -10.0000, 6.0000,
  -10.0000, -10.0000, 9.0000,
  -10.0000, 0.0000, 9.0000;
FenestrationSurface:Detailed, Win_S-34, Window, WinConst_S-34, S-34, , Autocalculate, , 1, 4,
  -10.0000, -2.5000, 6.7500,
  -10.0000, -7.5000, 6.7500,
  -10.0000, -7.5000, 8.2500,
  -10.0000, -2.5000, 8.2500;
BuildingSurface:Detailed, S-35, Roof, Const_S-35, Z3-3, , Outdoors, , SunExposed, WindExposed, Autocalculate, 4,
  -10.0000, -10.0000, 9.0000,
  0.0000, -10.0000, 9.0000,
  0.0000, 0.0000, 9.0000,
  -10.0000, 0.0000, 9.0000;
BuildingSurface:Detailed, S-36, Floor, Const_S-36, Z3-3, , Outdoors, , SunExposed, WindExposed, Autocalculate, 4,
  -10.0000, 0.0000, 6.0000,
  0.0000, 0.0000, 6.0000,
  0.0000, -10.0000, 6.0000,
  -10.0000, -10.0000, 6.0000;
BuildingSurface:Detailed, S-37, Wall, Const_S-37, Z3-4, , Outdoors, , SunExposed, WindExposed, Autocalculate, 4,
  0.0000, -10.0000, 6.0000,
  10.0000, -10.0000, 6.0000,
  10.0000, -10.0000, 9.0000,
  0.0000, -10.0000, 9.0000;
FenestrationSurface:Detailed, Win_S-37, Window, WinConst_S-37, S-37, , Autocalculate, , 1, 4,
  2.5000, -10.0000, 6.7500,
  7.5000, -10.0000, 6.7500,
  7.5000, -10.0000, 8.2500,
  2.5000, -10.0000, 8.2500;
BuildingSurface:Detailed, S-38, Wall, Const_S-38, Z3-4, , Outdoors, , SunExposed, WindExposed, Autocalculate, 4,
  10.0000, -10.0000, 6.0000,
  10.0000, 0.0000, 6.0000,
  10.0000, 0.0000, 9.0000,
  10.0000, -10.0000, 9.0000;
FenestrationSurface:Detailed, Win_S-38, Window, WinConst_S-38, S-38, , Autocalculate, , 1, 4,
  10.0000, -7.5000, 6.7500,
  10.0000, -2.5000, 6.7500,
  10.0000, -2.5000, 8.2500,
  10.0000, -7.5000, 8.2500;
BuildingSurface:Detailed, S-39, Roof, Const_S-39, Z3-4, , Outdoors, , SunExposed, WindExposed, Autocalculate, 4,
  0.0000, -10.0000, 9.0000,
  10.0000, -10.0000, 9.0000,
  10.0000, 0.0000, 9.0000,
  0.0000, 0.0000, 9.0000;
BuildingSurface:Detailed, S-40, Floor, Const_S-40, Z3-4, , Outdoors, , SunExposed, WindExposed, Autocalculate, 4,
  0.0000, 0.0000, 6.0000,
  10.0000, 0.0000, 6.0000,
  10.0000, -10.0000, 6.0000,
  0.0000, -10.0000, 6.0000;
Output:Variable, *, Zone Ideal Loads Supply Air Total Heating Energy, Monthly;
Output:Variable, *, Zone Ideal Loads Supply Air Total Cooling Energy, Monthly;
Output:Variable, *, Lights Electricity Energy, Monthly;
Output:Variable, *, Electric Equipment Electricity Energy, Monthly;
OutputControl:Table:Style, Comma;
Output:Table:SummaryReports, AllSummary;
